NAME: Random_50_5
ELLAPSED_TIME_(ms): 0
TOUR_SIZE: 1307.7191
TOUR_SECTION
0
32
26
40
20
43
25
36
28
1
14
39
19
13
45
24
30
7
10
31
23
8
33
47
29
46
3
42
27
2
12
9
34
17
44
21
11
5
6
49
48
38
37
4
18
16
15
41
22
35
0
EOF
